n = 8;
k = 127;
price = [25, 18, 24, 18, 19, 16, 25, 25];
m = 29;
buy = [2, 3, 6, 2, 6, 2, 2, 4, 3, 5, 2, 4, 4, 5, 5, 2, 3, 3, 2, 5, 4, 2, 5, 4, 5, 5, 2, 2, 2];
free = [1, 1, 2, 1, 2, 1, 1, 2, 1, 2, 1, 2, 2, 2, 2, 1, 1, 1, 1, 2, 2, 1, 2, 2, 2, 2, 1, 1, 1];
